# Enforce the use of spherical GTO basis:
# the molden file generated in the cartesian (default) GTO basis
# cannot be used in GBTOlib due to a yet unknown normalization
# convention for the cartesian GTOs in PSI4.
set puream true
set print_MOs true

molecule {
    >>>CHARGE<<<  >>>SPIN<<<
    symmetry >>>SYMMETRY<<<
    units >>>UNIT<<<

    no_com        # do not adjust centre of mass
    no_reorient   # do not adjust orientation of the molecule

>>>GEOMETRY<<<
}

# HF
set basis >>>BASISNAME<<<
set reference >>>REFERENCE<<<
set maxiter 100

# CASSCF
set restricted_docc [ >>>CLOSED<<< ]
set active [ >>>ACTIVE<<< ]
set mcscf_maxiter 1000

# state-averaging
set num_roots >>>NUMROOTS<<<
set avg_states [ >>>AVGSTATES<<< ]
set avg_weights [ >>>AVGWEIGHTS<<< ]

[E, wfn] = energy('>>>METHOD<<<', return_wfn=True)

molden(wfn, '>>>MOLECULE<<<.molden')
